true false true
presolving:
presolving (0 rounds: 0 fast, 0 medium, 0 exhaustive):
 0 deleted vars, 0 deleted constraints, 0 added constraints, 0 tightened bounds, 0 added holes, 0 changed sides, 0 changed coefficients
 0 implications, 0 cliques
presolved problem has 42 variables (42 bin, 0 int, 0 impl, 0 cont) and 34 constraints
     34 constraints of type <linear>
transformed objective value is always integral (scale: 1)
Presolving Time: 0.00

 time | node  | left  |LP iter|LP it/n|mem/heur|mdpt |vars |cons |rows |cuts |sepa|confs|strbr|  dualbound   | primalbound  |  gap   | compl. 
p 0.0s|     1 |     0 |     0 |     - |shiftand|   0 |  42 |  34 |  34 |   0 |  0 |   0 |   0 |      --      | 8.000000e+00 |    Inf | unknown
 time | node  | left  |LP iter|LP it/n|mem/heur|mdpt |vars |cons |rows |cuts |sepa|confs|strbr|  dualbound   | primalbound  |  gap   | compl. 
  0.0s|     1 |     0 |    15 |     - |   959k |   0 | 104 |  34 |  34 |   0 |  0 |   0 |   0 | 1.000000e+00 | 8.000000e+00 | 700.00%| unknown
 time | node  | left  |LP iter|LP it/n|mem/heur|mdpt |vars |cons |rows |cuts |sepa|confs|strbr|  dualbound   | primalbound  |  gap   | compl. 
  7.7s|     1 |     0 |   323 |     - |  3852k |   0 |1041 |  34 |  34 |   0 |  0 |   0 |   0 | 7.000000e+00 | 8.000000e+00 |  14.29%| unknown
 time | node  | left  |LP iter|LP it/n|mem/heur|mdpt |vars |cons |rows |cuts |sepa|confs|strbr|  dualbound   | primalbound  |  gap   | compl. 
  7.8s|     1 |     2 |   770 |     - |  4191k |   0 |1041 |  34 |  34 |   0 |  1 |   0 |   0 | 7.000000e+00 | 8.000000e+00 |  14.29%| unknown
 time | node  | left  |LP iter|LP it/n|mem/heur|mdpt |vars |cons |rows |cuts |sepa|confs|strbr|  dualbound   | primalbound  |  gap   | compl. 
  7.8s|     2 |     3 |   782 |  12.0 |  4252k |   1 |1041 |  34 |  34 |   0 |  1 |   0 |   0 | 7.000000e+00 | 8.000000e+00 |  14.29%| unknown
 time | node  | left  |LP iter|LP it/n|mem/heur|mdpt |vars |cons |rows |cuts |sepa|confs|strbr|  dualbound   | primalbound  |  gap   | compl. 
  7.9s|     3 |     4 |   798 |  14.0 |  4344k |   2 |1041 |  34 |  34 |   0 |  1 |   0 |   0 | 7.000000e+00 | 8.000000e+00 |  14.29%| unknown
 time | node  | left  |LP iter|LP it/n|mem/heur|mdpt |vars |cons |rows |cuts |sepa|confs|strbr|  dualbound   | primalbound  |  gap   | compl. 
  7.9s|     4 |     5 |  1050 |  93.3 |  4589k |   2 |1041 |  34 |  34 |   0 |  1 |   0 |   0 | 7.000000e+00 | 8.000000e+00 |  14.29%| unknown
 time | node  | left  |LP iter|LP it/n|mem/heur|mdpt |vars |cons |rows |cuts |sepa|confs|strbr|  dualbound   | primalbound  |  gap   | compl. 
  7.9s|     5 |     6 |  1060 |  72.5 |  4683k |   2 |1041 |  34 |  34 |   0 |  1 |   0 |   0 | 7.000000e+00 | 8.000000e+00 |  14.29%| unknown
 time | node  | left  |LP iter|LP it/n|mem/heur|mdpt |vars |cons |rows |cuts |sepa|confs|strbr|  dualbound   | primalbound  |  gap   | compl. 
  8.0s|     6 |     7 |  1072 |  60.4 |  4710k |   2 |1041 |  34 |  34 |   0 |  1 |   0 |   0 | 7.000000e+00 | 8.000000e+00 |  14.29%| unknown
 time | node  | left  |LP iter|LP it/n|mem/heur|mdpt |vars |cons |rows |cuts |sepa|confs|strbr|  dualbound   | primalbound  |  gap   | compl. 
  8.0s|     7 |     8 |  1074 |  50.7 |  4711k |   3 |1041 |  34 |  34 |   0 |  1 |   0 |   0 | 7.000000e+00 | 8.000000e+00 |  14.29%| unknown
 time | node  | left  |LP iter|LP it/n|mem/heur|mdpt |vars |cons |rows |cuts |sepa|confs|strbr|  dualbound   | primalbound  |  gap   | compl. 
  8.3s|     8 |     9 |  1164 |  56.3 |  4829k |   3 |1144 |  34 |  34 |   0 |  1 |   0 |   0 | 7.000000e+00 | 8.000000e+00 |  14.29%| unknown
 time | node  | left  |LP iter|LP it/n|mem/heur|mdpt |vars |cons |rows |cuts |sepa|confs|strbr|  dualbound   | primalbound  |  gap   | compl. 
  8.4s|     9 |    10 |  1171 |  50.1 |  4843k |   4 |1144 |  34 |  34 |   0 |  1 |   0 |   0 | 7.000000e+00 | 8.000000e+00 |  14.29%| unknown
 time | node  | left  |LP iter|LP it/n|mem/heur|mdpt |vars |cons |rows |cuts |sepa|confs|strbr|  dualbound   | primalbound  |  gap   | compl. 
  8.4s|    10 |    11 |  1182 |  45.8 |  4845k |   5 |1144 |  34 |  34 |   0 |  1 |   0 |   0 | 7.000000e+00 | 8.000000e+00 |  14.29%| unknown
 time | node  | left  |LP iter|LP it/n|mem/heur|mdpt |vars |cons |rows |cuts |sepa|confs|strbr|  dualbound   | primalbound  |  gap   | compl. 
  8.5s|    11 |    12 |  1190 |  42.0 |  4848k |   6 |1144 |  34 |  34 |   0 |  1 |   0 |   0 | 7.000000e+00 | 8.000000e+00 |  14.29%| unknown
 time | node  | left  |LP iter|LP it/n|mem/heur|mdpt |vars |cons |rows |cuts |sepa|confs|strbr|  dualbound   | primalbound  |  gap   | compl. 
  8.5s|    12 |    13 |  1207 |  39.7 |  5112k |   6 |1144 |  34 |  34 |   0 |  1 |   0 |   0 | 7.000000e+00 | 8.000000e+00 |  14.29%| unknown
 time | node  | left  |LP iter|LP it/n|mem/heur|mdpt |vars |cons |rows |cuts |sepa|confs|strbr|  dualbound   | primalbound  |  gap   | compl. 
  8.6s|    13 |    14 |  1228 |  38.2 |  5251k |   7 |1159 |  34 |  34 |   0 |  1 |   0 |   0 | 7.000000e+00 | 8.000000e+00 |  14.29%| unknown
 time | node  | left  |LP iter|LP it/n|mem/heur|mdpt |vars |cons |rows |cuts |sepa|confs|strbr|  dualbound   | primalbound  |  gap   | compl. 
  9.0s|    14 |    13 |  1257 |  37.5 |  5545k |   7 |1164 |  34 |  34 |   0 |  0 |   0 |   0 | 7.000000e+00 | 8.000000e+00 |  14.29%| unknown
 time | node  | left  |LP iter|LP it/n|mem/heur|mdpt |vars |cons |rows |cuts |sepa|confs|strbr|  dualbound   | primalbound  |  gap   | compl. 
  9.3s|    15 |    14 |  1319 |  39.2 |  5594k |   7 |1210 |  34 |  34 |   0 |  1 |   0 |   0 | 7.000000e+00 | 8.000000e+00 |  14.29%|   0.29%
 time | node  | left  |LP iter|LP it/n|mem/heur|mdpt |vars |cons |rows |cuts |sepa|confs|strbr|  dualbound   | primalbound  |  gap   | compl. 
  9.3s|    16 |    15 |  1335 |  37.7 |  5607k |   8 |1210 |  34 |  34 |   0 |  1 |   0 |   0 | 7.000000e+00 | 8.000000e+00 |  14.29%|   0.29%
 time | node  | left  |LP iter|LP it/n|mem/heur|mdpt |vars |cons |rows |cuts |sepa|confs|strbr|  dualbound   | primalbound  |  gap   | compl. 
  9.4s|    17 |    16 |  1337 |  35.4 |  5608k |   9 |1210 |  34 |  34 |   0 |  1 |   0 |   0 | 7.000000e+00 | 8.000000e+00 |  14.29%|   0.29%
 time | node  | left  |LP iter|LP it/n|mem/heur|mdpt |vars |cons |rows |cuts |sepa|confs|strbr|  dualbound   | primalbound  |  gap   | compl. 
  9.6s|    18 |    17 |  1362 |  34.8 |  5625k |  10 |1227 |  34 |  34 |   0 |  1 |   0 |   0 | 7.000000e+00 | 8.000000e+00 |  14.29%|   0.29%
 time | node  | left  |LP iter|LP it/n|mem/heur|mdpt |vars |cons |rows |cuts |sepa|confs|strbr|  dualbound   | primalbound  |  gap   | compl. 
  9.8s|    19 |    16 |  1369 |  33.3 |  5629k |  11 |1227 |  34 |  34 |   0 |  0 |   0 |   0 | 7.000000e+00 | 8.000000e+00 |  14.29%|   0.29%
 time | node  | left  |LP iter|LP it/n|mem/heur|mdpt |vars |cons |rows |cuts |sepa|confs|strbr|  dualbound   | primalbound  |  gap   | compl. 
r 9.9s|    20 |     0 |  1375 |  31.8 |simplero|  11 |1227 |  34 |  34 |   0 |  0 |   0 |   0 | 7.000000e+00 | 7.000000e+00 |   0.00%|  99.93%

SCIP Status        : problem is solved [optimal solution found]
Solving Time (sec) : 9.87
Solving Nodes      : 20
Primal Bound       : +7.00000000000000e+00 (3 solutions)
Dual Bound         : +7.00000000000000e+00
Gap                : 0.00 %
Running with parallel: True bidir: False symbreak: True
Number of Nodes:  34
47.73814370038673% holds
starting cheapest insertion heuristic
Heuristic without TSP improvement:  8
Heuristic without TSP improvement time:  0.1
Heuristic Sol:  8
Heuristic total time:  0.1
[[2, 28, 14, 17], [21, 8, 3, 15, 4, 7], [24, 11, 9, 19], [27, 16, 25, 1, 5], [33, 23, 13], [32, 0, 12, 30, 10, 26], [31, 6, 20], [29, 18, 22]]
Instance path:  /home/htc/mghannam/SCRATCH/lccp-rust/data/at62_ftv33.npcc
Timelimit:  7200
Heuristic without TSP improvement:  8
Heuristic without TSP improvement time:  0.1
Heuristic Sol:  8
Heuristic total time:  0.2
at 1 zero_duals: 26
at1, LP obj: 8.0 n_added_paths: 62
at 1 zero_duals: 26
at1, LP obj: 8.0 n_added_paths: 16
at 1 zero_duals: 17
at1, LP obj: 8.0 n_added_paths: 38
at 1 zero_duals: 16
at1, LP obj: 8.0 n_added_paths: 129
at 1 zero_duals: 12
at1, LP obj: 7.8500000000000005 n_added_paths: 120
at 1 zero_duals: 9
at1, LP obj: 7.6000000000000005 n_added_paths: 111
at 1 zero_duals: 5
at1, LP obj: 7.276595744680851 n_added_paths: 129
at 1 zero_duals: 2
Switching to elementary pricing
at1, LP obj: 6.892393320964748 n_added_paths: 321
at 1 zero_duals: 3
at1, LP obj: 6.709677419354839 n_added_paths: 24
at 1 zero_duals: 1
Switching to elementary pricing
at1, LP obj: 6.653846153846153 n_added_paths: 47
updated lowerbound from 1.0 to 6
at 1 zero_duals: 2
Switching to elementary pricing
at1, LP obj: 6.587155963302752 n_added_paths: 2
updated lowerbound from 6.0 to 7
Gap too small = 0, stopping pricing with lb = 7
Gap too small = 0, stopping pricing with lb = 7
Gap too small = 0, stopping pricing with lb = 7
Gap too small = 0, stopping pricing with lb = 7
Gap too small = 0, stopping pricing with lb = 7
Gap too small = 0, stopping pricing with lb = 7
Gap too small = 0, stopping pricing with lb = 7
at 13 zero_duals: 3
Switching to elementary pricing
at13, LP obj: 7.035714285714286 n_added_paths: 103
Gap too small = 0, stopping pricing with lb = 7
Gap too small = 0, stopping pricing with lb = 7
Gap too small = 0, stopping pricing with lb = 7
Gap too small = 0, stopping pricing with lb = 7
Gap too small = 0, stopping pricing with lb = 7
at 24 zero_duals: 6
at24, LP obj: 7.0125 n_added_paths: 15
Gap too small = 0, stopping pricing with lb = 7
at 25 zero_duals: 3
Switching to elementary pricing
at25, LP obj: 7.0588235294117645 n_added_paths: 1
at 25 zero_duals: 4
Switching to elementary pricing
at25, LP obj: 7.055555555555555 n_added_paths: 1
at 25 zero_duals: 4
at25, LP obj: 7.044444444444444 n_added_paths: 3
at 25 zero_duals: 4
Switching to elementary pricing
at25, LP obj: 7.043478260869565 n_added_paths: 0
updated lowerbound from 7.0 to 8
at 23 zero_duals: 5
Switching to elementary pricing
at23, LP obj: 7.111111111111112 n_added_paths: 46
Gap too small = 0, stopping pricing with lb = 7
Gap too small = 0, stopping pricing with lb = 7
Gap too small = 0, stopping pricing with lb = 7
at 32 zero_duals: 3
Switching to elementary pricing
at32, LP obj: 7.03030303030303 n_added_paths: 17
Gap too small = 0, stopping pricing with lb = 7
at 34 zero_duals: 2
Switching to elementary pricing
at34, LP obj: 7.005747126436781 n_added_paths: 0
updated lowerbound from 7.0 to 8
Best solution found:
[29, 19, 22, 18, 29] 1.0 1.0
checking cycle [29, 19, 22, 18, 29]
[29, 19, 22, 18, 29] 271 229
[32, 21, 4, 9, 30, 32] 1.0 1.0
checking cycle [32, 21, 4, 9, 30, 32]
[32, 21, 4, 9, 30, 32] 234 221
[33, 7, 23, 13, 33] 1.0 1.0
checking cycle [33, 7, 23, 13, 33]
[33, 7, 23, 13, 33] 230 177
[31, 14, 20, 31] 1.0 1.0
checking cycle [31, 14, 20, 31]
[31, 14, 20, 31] 245 237
[17, 6, 15, 3, 8, 2, 17] 1.0 1.0
checking cycle [17, 6, 15, 3, 8, 2, 17]
[17, 6, 15, 3, 8, 2, 17] 425 418
[27, 5, 1, 25, 16, 11, 27] 1.0 1.0
checking cycle [27, 5, 1, 25, 16, 11, 27]
[27, 5, 1, 25, 16, 11, 27] 280 278
[28, 24, 26, 10, 12, 0, 28] 1.0 1.0
checking cycle [28, 24, 26, 10, 12, 0, 28]
[28, 24, 26, 10, 12, 0, 28] 275 257
